benchmark/results/graph__10-1000-0.10-02_13/graph__10-1000-0.10-02_13_QuintonOs_Benders_aux.lp
\ This file has been generated by DOcplex
\ ENCODING=ISO-8859-1
\Problem name: Quinton Bounded Benders_auxiliary_sub

Minimize
 obj: 0.000839666320 pi_nr_a0 + 0.000925495007 pi_nr_a1
      + 0.000793650794 pi_nr_a2 + 0.001471269410 pi_nr_a3
      + 0.001226456903 pi_nr_a4 + 0.003514315282 pi_nr_a5
      + 0.001071943712 pi_nr_a6 + 0.001048218029 pi_nr_a7
      + 0.000913628770 pi_nr_a8 + 0.000773993808 pi_nr_a9 + pi_p_a1_a0
      + pi_p_a3_a0 + pi_p_a1_a4 + pi_p_a3_a9 + pi_p_a7_a8 + pi_p_a4_a8
      + pi_p_a7_a6 + 631.706855307098 pi_d_a0_a1_proc_1
      + 1963.919500630721 pi_d_a0_a1_proc_0 + 621.080499369279 pi_d_a1_a0_proc_1
      + 1953.293144692902 pi_d_a1_a0_proc_0
      + 1280.923027256462 pi_d_a0_a2_proc_0
      + 1303.921705320195 pi_d_a2_a0_proc_0
      + 1300.376591036415 pi_d_a0_a3_proc_1
      + 1307.555314136008 pi_d_a0_a3_proc_0
      + 1277.444685863992 pi_d_a3_a0_proc_1
      + 1284.623408963585 pi_d_a3_a0_proc_0 + 332.207401684779 pi_d_a0_a4_proc_1
      + 2257.906844706244 pi_d_a0_a4_proc_0 + 327.093155293757 pi_d_a4_a0_proc_1
      + 2252.792598315221 pi_d_a4_a0_proc_0 + 652.079124681014 pi_d_a0_a5_proc_1
      + 1943.922331512875 pi_d_a0_a5_proc_0 + 641.077668487125 pi_d_a5_a0_proc_1
      + 1932.920875318986 pi_d_a5_a0_proc_0 + 672.374378181850 pi_d_a0_a6_proc_1
      + 1924.000610331198 pi_d_a0_a6_proc_0 + 660.999389668803 pi_d_a6_a0_proc_1
      + 1912.625621818150 pi_d_a6_a0_proc_0
      + 1292.421645231251 pi_d_a0_a7_proc_0
      + 1292.423087345405 pi_d_a7_a0_proc_0 + 5.944450066316 pi_d_a0_a8_proc_1
      + 2579.697629810142 pi_d_a0_a8_proc_0 + 5.302370189858 pi_d_a8_a0_proc_1
      + 2579.055549933685 pi_d_a8_a0_proc_0
      + 1303.855662222211 pi_d_a0_a9_proc_0
      + 1280.989070354445 pi_d_a9_a0_proc_0 + 661.355779247417 pi_d_a1_a2_proc_0
      + 672.012133499549 pi_d_a2_a1_proc_0 + 1920.600044626377 pi_d_a1_a3_proc_1
      + 676.301947896279 pi_d_a1_a3_proc_0 + 1908.698052103721 pi_d_a3_a1_proc_1
      + 664.399955373624 pi_d_a3_a1_proc_0 + 958.518535167910 pi_d_a1_a4_proc_1
      + 1632.741158359684 pi_d_a1_a4_proc_0 + 952.258841640316 pi_d_a4_a1_proc_1
      + 1626.481464832090 pi_d_a4_a1_proc_0
      + 1283.644957673736 pi_d_a1_a5_proc_1
      + 1324.011344675906 pi_d_a1_a5_proc_0
      + 1260.988655324094 pi_d_a5_a1_proc_1
      + 1301.355042326264 pi_d_a5_a1_proc_0
      + 1303.924638084871 pi_d_a1_a6_proc_1
      + 1304.074050404528 pi_d_a1_a6_proc_0
      + 1280.925949595472 pi_d_a6_a1_proc_1
      + 1281.075361915128 pi_d_a6_a1_proc_0 + 672.496489286423 pi_d_a1_a7_proc_0
      + 660.871423460543 pi_d_a7_a1_proc_0 + 626.526355353061 pi_d_a1_a8_proc_1
      + 1948.802715267197 pi_d_a1_a8_proc_0 + 636.197284732803 pi_d_a8_a1_proc_1
      + 1958.473644646939 pi_d_a8_a1_proc_0 + 661.288483381446 pi_d_a1_a9_proc_0
      + 672.079429365520 pi_d_a9_a1_proc_0 + 3.635837363646 pi_d_a2_a3_proc_0
      + 4.698153159290 pi_d_a3_a2_proc_0 + 971.620477139952 pi_d_a2_a4_proc_0
      + 955.234233304856 pi_d_a4_a2_proc_0 + 651.999186763539 pi_d_a2_a5_proc_0
      + 640.999287491666 pi_d_a5_a2_proc_0 + 631.704404168269 pi_d_a2_a6_proc_0
      + 621.077095404421 pi_d_a6_a2_proc_0 + pi_d_a7_a2_proc_0
      + 1298.911264186851 pi_d_a2_a8_proc_0
      + 1275.997182980319 pi_d_a8_a2_proc_0 + pi_d_a2_a9_proc_0
      + 1626.588840165466 pi_d_a3_a4_proc_1 + 975.777541133211 pi_d_a3_a4_proc_0
      + 1609.222458866789 pi_d_a4_a3_proc_1 + 958.411159834534 pi_d_a4_a3_proc_0
      + 1940.802542698860 pi_d_a3_a5_proc_1 + 656.135007477001 pi_d_a3_a5_proc_0
      + 1928.864992522999 pi_d_a5_a3_proc_1 + 644.197457301140 pi_d_a5_a3_proc_0
      + 1960.801595326697 pi_d_a3_a6_proc_1 + 635.917085422324 pi_d_a3_a6_proc_0
      + 1949.082914577676 pi_d_a6_a3_proc_1 + 624.198404673303 pi_d_a6_a3_proc_0
      + 4.367234347009 pi_d_a3_a7_proc_0 + 3.966756175927 pi_d_a7_a3_proc_0
      + 1294.227381530383 pi_d_a3_a8_proc_1
      + 1291.469819220489 pi_d_a3_a8_proc_0
      + 1293.530180779511 pi_d_a8_a3_proc_1
      + 1290.772618469617 pi_d_a8_a3_proc_0 + 4.698215809360 pi_d_a3_a9_proc_0
      + 3.635774713576 pi_d_a9_a3_proc_0 + 984.375105697662 pi_d_a4_a5_proc_1
      + 1618.228290397674 pi_d_a4_a5_proc_0 + 966.771709602326 pi_d_a5_a4_proc_1
      + 1600.624894302338 pi_d_a5_a4_proc_0
      + 1004.312277517775 pi_d_a4_a6_proc_1
      + 1597.948487535274 pi_d_a4_a6_proc_0 + 987.051512464726 pi_d_a6_a4_proc_1
      + 1580.687722482224 pi_d_a6_a4_proc_0 + 960.188403146078 pi_d_a4_a7_proc_0
      + 966.666307298730 pi_d_a7_a4_proc_0 + 337.945626497143 pi_d_a4_a8_proc_1
      + 2253.708784109121 pi_d_a4_a8_proc_0 + 331.291215890879 pi_d_a8_a4_proc_1
      + 2247.054373502857 pi_d_a8_a4_proc_0 + 972.125653138384 pi_d_a4_a9_proc_0
      + 954.729057306424 pi_d_a9_a4_proc_0 + 1312.296790711144 pi_d_a5_a6_proc_1
      + 1272.076764539039 pi_d_a5_a6_proc_0
      + 1312.923235460961 pi_d_a6_a5_proc_1
      + 1272.703209288856 pi_d_a6_a5_proc_0 + 640.499243622646 pi_d_a5_a7_proc_0
      + 652.499230632558 pi_d_a7_a5_proc_0 + 645.999681086136 pi_d_a5_a8_proc_1
      + 1927.906602508511 pi_d_a5_a8_proc_0 + 657.093397491489 pi_d_a8_a5_proc_1
      + 1939.000318913864 pi_d_a8_a5_proc_0 + 652.499230536603 pi_d_a5_a9_proc_0
      + 640.499243718601 pi_d_a9_a5_proc_0 + 621.061980507940 pi_d_a6_a7_proc_0
      + 631.719519064751 pi_d_a7_a6_proc_0 + 666.013698027174 pi_d_a6_a8_proc_1
      + 1907.703644767035 pi_d_a6_a8_proc_0 + 677.296355232965 pi_d_a8_a6_proc_1
      + 1918.986301972826 pi_d_a8_a6_proc_0 + 632.219540999697 pi_d_a6_a9_proc_0
      + 620.561958572994 pi_d_a9_a6_proc_0 + 1298.911264186851 pi_d_a7_a8_proc_0
      + 1275.997182980319 pi_d_a8_a7_proc_0 + pi_d_a7_a9_proc_0
      + 1298.907358787148 pi_d_a8_a9_proc_0
      + 1276.001088380022 pi_d_a9_a8_proc_0 + 0.000060088012 pi_y2_a0_proc_0
      + 0.999939911988 pi_y2_a0_proc_1 + 0.484377742745 pi_y2_a1_proc_0
      + 0.515622257255 pi_y2_a1_proc_1 + pi_y2_a2_proc_0
      + 0.997161768373 pi_y2_a3_proc_0 + 0.002838231627 pi_y2_a3_proc_1
      + 0.254700189456 pi_y2_a4_proc_0 + 0.745299810544 pi_y2_a4_proc_1
      + 0.500000590459 pi_y2_a5_proc_0 + 0.499999409541 pi_y2_a5_proc_1
      + 0.515564435150 pi_y2_a6_proc_0 + 0.484435564850 pi_y2_a6_proc_1
      + pi_y2_a7_proc_0 + 0.003905399703 pi_y2_a8_proc_0
      + 0.996094600297 pi_y2_a8_proc_1 + pi_y2_a9_proc_0
Subject To
 c1: 0.000839630563 pi_nr_a0 + 0.000798722045 pi_nr_a1 + 0.000793650794 pi_nr_a2
     + 0.001472754050 pi_nr_a3 + 0.001074113856 pi_nr_a4
     + 0.006134969325 pi_nr_a5 + 0.001086956522 pi_nr_a6
     + 0.001048218029 pi_nr_a7 + 0.000914076782 pi_nr_a8
     + 0.000773993808 pi_nr_a9 + pi_p_a1_a0 + pi_p_a3_a0 + pi_p_a1_a4
     + pi_p_a3_a9 + pi_p_a7_a8 + pi_p_a4_a8 + pi_p_a7_a6
     + 2584 pi_d_a0_a1_proc_0 + pi_d_a1_a0_proc_1 + 2585 pi_d_a1_a0_proc_0
     + 1281 pi_d_a0_a2_proc_0 + 1304 pi_d_a2_a0_proc_0 + 1304 pi_d_a0_a3_proc_1
     + 1304 pi_d_a0_a3_proc_0 + 1281 pi_d_a3_a0_proc_1 + 1281 pi_d_a3_a0_proc_0
     + 2584 pi_d_a0_a4_proc_0 + pi_d_a4_a0_proc_1 + 2585 pi_d_a4_a0_proc_0
     + 1304 pi_d_a0_a5_proc_1 + 1304 pi_d_a0_a5_proc_0 + 1281 pi_d_a5_a0_proc_1
     + 1281 pi_d_a5_a0_proc_0 + 1304 pi_d_a0_a6_proc_1 + 1304 pi_d_a0_a6_proc_0
     + 1281 pi_d_a6_a0_proc_1 + 1281 pi_d_a6_a0_proc_0 + 1281 pi_d_a0_a7_proc_0
     + 1304 pi_d_a7_a0_proc_0 + pi_d_a0_a8_proc_1 + 2585 pi_d_a0_a8_proc_0
     + 2584 pi_d_a8_a0_proc_0 + 1304 pi_d_a0_a9_proc_0 + 1281 pi_d_a9_a0_proc_0
     + 1281 pi_d_a1_a2_proc_0 + 1304 pi_d_a2_a1_proc_0 + 1304 pi_d_a1_a3_proc_1
     + 1304 pi_d_a1_a3_proc_0 + 1281 pi_d_a3_a1_proc_1 + 1281 pi_d_a3_a1_proc_0
     + pi_d_a1_a4_proc_1 + 2585 pi_d_a1_a4_proc_0 + 2584 pi_d_a4_a1_proc_0
     + 1304 pi_d_a1_a5_proc_1 + 1304 pi_d_a1_a5_proc_0 + 1281 pi_d_a5_a1_proc_1
     + 1281 pi_d_a5_a1_proc_0 + 1304 pi_d_a1_a6_proc_1 + 1304 pi_d_a1_a6_proc_0
     + 1281 pi_d_a6_a1_proc_1 + 1281 pi_d_a6_a1_proc_0 + 1304 pi_d_a1_a7_proc_0
     + 1281 pi_d_a7_a1_proc_0 + 2 pi_d_a1_a8_proc_1 + 2586 pi_d_a1_a8_proc_0
     - pi_d_a8_a1_proc_1 + 2583 pi_d_a8_a1_proc_0 + 1281 pi_d_a1_a9_proc_0
     + 1304 pi_d_a9_a1_proc_0 + pi_d_a3_a2_proc_0 + 1304 pi_d_a2_a4_proc_0
     + 1281 pi_d_a4_a2_proc_0 + pi_d_a5_a2_proc_0 + pi_d_a6_a2_proc_0
     + pi_d_a7_a2_proc_0 + 1304 pi_d_a2_a8_proc_0 + 1281 pi_d_a8_a2_proc_0
     + pi_d_a2_a9_proc_0 + 1304 pi_d_a3_a4_proc_1 + 1304 pi_d_a3_a4_proc_0
     + 1281 pi_d_a4_a3_proc_1 + 1281 pi_d_a4_a3_proc_0 + 2585 pi_d_a3_a5_proc_1
     + pi_d_a3_a5_proc_0 + 2584 pi_d_a5_a3_proc_1 + 2585 pi_d_a3_a6_proc_1
     + pi_d_a3_a6_proc_0 + 2584 pi_d_a6_a3_proc_1 + pi_d_a3_a7_proc_0
     + 1304 pi_d_a3_a8_proc_1 + 1304 pi_d_a3_a8_proc_0 + 1281 pi_d_a8_a3_proc_1
     + 1281 pi_d_a8_a3_proc_0 + pi_d_a3_a9_proc_0 + 1304 pi_d_a4_a5_proc_1
     + 1304 pi_d_a4_a5_proc_0 + 1281 pi_d_a5_a4_proc_1 + 1281 pi_d_a5_a4_proc_0
     + 1304 pi_d_a4_a6_proc_1 + 1304 pi_d_a4_a6_proc_0 + 1281 pi_d_a6_a4_proc_1
     + 1281 pi_d_a6_a4_proc_0 + 1281 pi_d_a4_a7_proc_0 + 1304 pi_d_a7_a4_proc_0
     + pi_d_a4_a8_proc_1 + 2585 pi_d_a4_a8_proc_0 + 2584 pi_d_a8_a4_proc_0
     + 1304 pi_d_a4_a9_proc_0 + 1281 pi_d_a9_a4_proc_0 + 2584 pi_d_a5_a6_proc_1
     + 2585 pi_d_a6_a5_proc_1 + pi_d_a6_a5_proc_0 + pi_d_a7_a5_proc_0
     + 1281 pi_d_a5_a8_proc_1 + 1281 pi_d_a5_a8_proc_0 + 1304 pi_d_a8_a5_proc_1
     + 1304 pi_d_a8_a5_proc_0 + pi_d_a5_a9_proc_0 + pi_d_a6_a7_proc_0
     + 1281 pi_d_a6_a8_proc_1 + 1281 pi_d_a6_a8_proc_0 + 1304 pi_d_a8_a6_proc_1
     + 1304 pi_d_a8_a6_proc_0 + pi_d_a6_a9_proc_0 + 1304 pi_d_a7_a8_proc_0
     + 1281 pi_d_a8_a7_proc_0 + pi_d_a7_a9_proc_0 + 1304 pi_d_a8_a9_proc_0
     + 1281 pi_d_a9_a8_proc_0 + pi_y2_a0_proc_1 + pi_y2_a1_proc_1
     + pi_y2_a2_proc_0 + pi_y2_a3_proc_0 + pi_y2_a4_proc_1 + pi_y2_a5_proc_0
     + pi_y2_a6_proc_0 + pi_y2_a7_proc_0 + pi_y2_a8_proc_1 + pi_y2_a9_proc_0 = 
     0.000189825361
 c2: pi_nr_a0 + pi_nr_a1 + pi_nr_a2 + pi_nr_a3 + pi_nr_a4 + pi_nr_a5 + pi_nr_a6
     + pi_nr_a7 + pi_nr_a8 + pi_nr_a9 - pi_y1_a0 - pi_y1_a1 - pi_y1_a2
     - pi_y1_a3 - pi_y1_a4 - pi_y1_a5 - pi_y1_a6 - pi_y1_a7 - pi_y1_a8
     - pi_y1_a9 >= 1
 c3: - pi_p_a1_a0 - pi_p_a3_a0 + pi_p_a0_a5 + pi_d_a0_a1_proc_1
     + pi_d_a0_a1_proc_0 - pi_d_a1_a0_proc_1 - pi_d_a1_a0_proc_0
     + pi_d_a0_a2_proc_0 - pi_d_a2_a0_proc_0 + pi_d_a0_a3_proc_1
     + pi_d_a0_a3_proc_0 - pi_d_a3_a0_proc_1 - pi_d_a3_a0_proc_0
     + pi_d_a0_a4_proc_1 + pi_d_a0_a4_proc_0 - pi_d_a4_a0_proc_1
     - pi_d_a4_a0_proc_0 + pi_d_a0_a5_proc_1 + pi_d_a0_a5_proc_0
     - pi_d_a5_a0_proc_1 - pi_d_a5_a0_proc_0 + pi_d_a0_a6_proc_1
     + pi_d_a0_a6_proc_0 - pi_d_a6_a0_proc_1 - pi_d_a6_a0_proc_0
     + pi_d_a0_a7_proc_0 - pi_d_a7_a0_proc_0 + pi_d_a0_a8_proc_1
     + pi_d_a0_a8_proc_0 - pi_d_a8_a0_proc_1 - pi_d_a8_a0_proc_0
     + pi_d_a0_a9_proc_0 - pi_d_a9_a0_proc_0 >= 0
 c4: 697 pi_p_a0_a5 + 697 pi_d_a0_a1_proc_0 + 697 pi_d_a0_a2_proc_0
     + 697 pi_d_a0_a3_proc_0 + 697 pi_d_a0_a4_proc_0 + 697 pi_d_a0_a5_proc_0
     + 697 pi_d_a0_a6_proc_0 + 697 pi_d_a0_a7_proc_0 + 697 pi_d_a0_a8_proc_0
     + 697 pi_d_a0_a9_proc_0 + pi_y1_a0 + pi_y2_a0_proc_0 >= 0
 c5: 1191 pi_p_a0_a5 + 1191 pi_d_a0_a1_proc_1 + 1191 pi_d_a0_a3_proc_1
     + 1191 pi_d_a0_a4_proc_1 + 1191 pi_d_a0_a5_proc_1 + 1191 pi_d_a0_a6_proc_1
     + 1191 pi_d_a0_a8_proc_1 + pi_y1_a0 + pi_y2_a0_proc_1 >= 0
 c6: pi_p_a1_a0 - pi_p_a2_a1 + pi_p_a1_a4 - pi_d_a0_a1_proc_1
     - pi_d_a0_a1_proc_0 + pi_d_a1_a0_proc_1 + pi_d_a1_a0_proc_0
     + pi_d_a1_a2_proc_0 - pi_d_a2_a1_proc_0 + pi_d_a1_a3_proc_1
     + pi_d_a1_a3_proc_0 - pi_d_a3_a1_proc_1 - pi_d_a3_a1_proc_0
     + pi_d_a1_a4_proc_1 + pi_d_a1_a4_proc_0 - pi_d_a4_a1_proc_1
     - pi_d_a4_a1_proc_0 + pi_d_a1_a5_proc_1 + pi_d_a1_a5_proc_0
     - pi_d_a5_a1_proc_1 - pi_d_a5_a1_proc_0 + pi_d_a1_a6_proc_1
     + pi_d_a1_a6_proc_0 - pi_d_a6_a1_proc_1 - pi_d_a6_a1_proc_0
     + pi_d_a1_a7_proc_0 - pi_d_a7_a1_proc_0 + pi_d_a1_a8_proc_1
     + pi_d_a1_a8_proc_0 - pi_d_a8_a1_proc_1 - pi_d_a8_a1_proc_0
     + pi_d_a1_a9_proc_0 - pi_d_a9_a1_proc_0 >= 0
 c7: 943 pi_p_a1_a0 + 943 pi_p_a1_a4 + 943 pi_d_a1_a0_proc_0
     + 943 pi_d_a1_a2_proc_0 + 943 pi_d_a1_a3_proc_0 + 943 pi_d_a1_a4_proc_0
     + 943 pi_d_a1_a5_proc_0 + 943 pi_d_a1_a6_proc_0 + 943 pi_d_a1_a7_proc_0
     + 943 pi_d_a1_a8_proc_0 + 943 pi_d_a1_a9_proc_0 + pi_y1_a1
     + pi_y2_a1_proc_0 >= 0
 c8: 1252 pi_p_a1_a0 + 1252 pi_p_a1_a4 + 1252 pi_d_a1_a0_proc_1
     + 1252 pi_d_a1_a3_proc_1 + 1252 pi_d_a1_a4_proc_1 + 1252 pi_d_a1_a5_proc_1
     + 1252 pi_d_a1_a6_proc_1 + 1252 pi_d_a1_a8_proc_1 + pi_y1_a1
     + pi_y2_a1_proc_1 >= 0
 c9: pi_p_a2_a1 + pi_p_a2_a7 - pi_p_a9_a2 - pi_d_a0_a2_proc_0
     + pi_d_a2_a0_proc_0 - pi_d_a1_a2_proc_0 + pi_d_a2_a1_proc_0
     + pi_d_a2_a3_proc_0 - pi_d_a3_a2_proc_0 + pi_d_a2_a4_proc_0
     - pi_d_a4_a2_proc_0 + pi_d_a2_a5_proc_0 - pi_d_a5_a2_proc_0
     + pi_d_a2_a6_proc_0 - pi_d_a6_a2_proc_0 + pi_d_a2_a7_proc_0
     - pi_d_a7_a2_proc_0 + pi_d_a2_a8_proc_0 - pi_d_a8_a2_proc_0
     + pi_d_a2_a9_proc_0 - pi_d_a9_a2_proc_0 >= 0
 c10: 1260 pi_p_a2_a1 + 1260 pi_p_a2_a7 + 1260 pi_d_a2_a0_proc_0
      + 1260 pi_d_a2_a1_proc_0 + 1260 pi_d_a2_a3_proc_0 + 1260 pi_d_a2_a4_proc_0
      + 1260 pi_d_a2_a5_proc_0 + 1260 pi_d_a2_a6_proc_0 + 1260 pi_d_a2_a7_proc_0
      + 1260 pi_d_a2_a8_proc_0 + 1260 pi_d_a2_a9_proc_0 + pi_y1_a2
      + pi_y2_a2_proc_0 >= 0
 c11: pi_p_a3_a0 - pi_p_a6_a3 - pi_p_a8_a3 + pi_p_a3_a9 - pi_d_a0_a3_proc_1
      - pi_d_a0_a3_proc_0 + pi_d_a3_a0_proc_1 + pi_d_a3_a0_proc_0
      - pi_d_a1_a3_proc_1 - pi_d_a1_a3_proc_0 + pi_d_a3_a1_proc_1
      + pi_d_a3_a1_proc_0 - pi_d_a2_a3_proc_0 + pi_d_a3_a2_proc_0
      + pi_d_a3_a4_proc_1 + pi_d_a3_a4_proc_0 - pi_d_a4_a3_proc_1
      - pi_d_a4_a3_proc_0 + pi_d_a3_a5_proc_1 + pi_d_a3_a5_proc_0
      - pi_d_a5_a3_proc_1 - pi_d_a5_a3_proc_0 + pi_d_a3_a6_proc_1
      + pi_d_a3_a6_proc_0 - pi_d_a6_a3_proc_1 - pi_d_a6_a3_proc_0
      + pi_d_a3_a7_proc_0 - pi_d_a7_a3_proc_0 + pi_d_a3_a8_proc_1
      + pi_d_a3_a8_proc_0 - pi_d_a8_a3_proc_1 - pi_d_a8_a3_proc_0
      + pi_d_a3_a9_proc_0 - pi_d_a9_a3_proc_0 >= 0
 c12: 679 pi_p_a3_a0 + 679 pi_p_a3_a9 + 679 pi_d_a3_a0_proc_0
      + 679 pi_d_a3_a1_proc_0 + 679 pi_d_a3_a2_proc_0 + 679 pi_d_a3_a4_proc_0
      + 679 pi_d_a3_a5_proc_0 + 679 pi_d_a3_a6_proc_0 + 679 pi_d_a3_a7_proc_0
      + 679 pi_d_a3_a8_proc_0 + 679 pi_d_a3_a9_proc_0 + pi_y1_a3
      + pi_y2_a3_proc_0 >= 0
 c13: 1053 pi_p_a3_a0 + 1053 pi_p_a3_a9 + 1053 pi_d_a3_a0_proc_1
      + 1053 pi_d_a3_a1_proc_1 + 1053 pi_d_a3_a4_proc_1 + 1053 pi_d_a3_a5_proc_1
      + 1053 pi_d_a3_a6_proc_1 + 1053 pi_d_a3_a8_proc_1 + pi_y1_a3
      + pi_y2_a3_proc_1 >= 0
 c14: - pi_p_a1_a4 - pi_p_a5_a4 - pi_p_a9_a4 + pi_p_a4_a8 + pi_p_a4_a6
      - pi_d_a0_a4_proc_1 - pi_d_a0_a4_proc_0 + pi_d_a4_a0_proc_1
      + pi_d_a4_a0_proc_0 - pi_d_a1_a4_proc_1 - pi_d_a1_a4_proc_0
      + pi_d_a4_a1_proc_1 + pi_d_a4_a1_proc_0 - pi_d_a2_a4_proc_0
      + pi_d_a4_a2_proc_0 - pi_d_a3_a4_proc_1 - pi_d_a3_a4_proc_0
      + pi_d_a4_a3_proc_1 + pi_d_a4_a3_proc_0 + pi_d_a4_a5_proc_1
      + pi_d_a4_a5_proc_0 - pi_d_a5_a4_proc_1 - pi_d_a5_a4_proc_0
      + pi_d_a4_a6_proc_1 + pi_d_a4_a6_proc_0 - pi_d_a6_a4_proc_1
      - pi_d_a6_a4_proc_0 + pi_d_a4_a7_proc_0 - pi_d_a7_a4_proc_0
      + pi_d_a4_a8_proc_1 + pi_d_a4_a8_proc_0 - pi_d_a8_a4_proc_1
      - pi_d_a8_a4_proc_0 + pi_d_a4_a9_proc_0 - pi_d_a9_a4_proc_0 >= 0
 c15: 598 pi_p_a4_a8 + 598 pi_p_a4_a6 + 598 pi_d_a4_a0_proc_0
      + 598 pi_d_a4_a1_proc_0 + 598 pi_d_a4_a2_proc_0 + 598 pi_d_a4_a3_proc_0
      + 598 pi_d_a4_a5_proc_0 + 598 pi_d_a4_a6_proc_0 + 598 pi_d_a4_a7_proc_0
      + 598 pi_d_a4_a8_proc_0 + 598 pi_d_a4_a9_proc_0 + pi_y1_a4
      + pi_y2_a4_proc_0 >= 0
 c16: 931 pi_p_a4_a8 + 931 pi_p_a4_a6 + 931 pi_d_a4_a0_proc_1
      + 931 pi_d_a4_a1_proc_1 + 931 pi_d_a4_a3_proc_1 + 931 pi_d_a4_a5_proc_1
      + 931 pi_d_a4_a6_proc_1 + 931 pi_d_a4_a8_proc_1 + pi_y1_a4
      + pi_y2_a4_proc_1 >= 0
 c17: pi_p_a5_a4 - pi_p_a0_a5 - pi_d_a0_a5_proc_1 - pi_d_a0_a5_proc_0
      + pi_d_a5_a0_proc_1 + pi_d_a5_a0_proc_0 - pi_d_a1_a5_proc_1
      - pi_d_a1_a5_proc_0 + pi_d_a5_a1_proc_1 + pi_d_a5_a1_proc_0
      - pi_d_a2_a5_proc_0 + pi_d_a5_a2_proc_0 - pi_d_a3_a5_proc_1
      - pi_d_a3_a5_proc_0 + pi_d_a5_a3_proc_1 + pi_d_a5_a3_proc_0
      - pi_d_a4_a5_proc_1 - pi_d_a4_a5_proc_0 + pi_d_a5_a4_proc_1
      + pi_d_a5_a4_proc_0 + pi_d_a5_a6_proc_1 + pi_d_a5_a6_proc_0
      - pi_d_a6_a5_proc_1 - pi_d_a6_a5_proc_0 + pi_d_a5_a7_proc_0
      - pi_d_a7_a5_proc_0 + pi_d_a5_a8_proc_1 + pi_d_a5_a8_proc_0
      - pi_d_a8_a5_proc_1 - pi_d_a8_a5_proc_0 + pi_d_a5_a9_proc_0
      - pi_d_a9_a5_proc_0 >= 0
 c18: 163 pi_p_a5_a4 + 163 pi_d_a5_a0_proc_0 + 163 pi_d_a5_a1_proc_0
      + 163 pi_d_a5_a2_proc_0 + 163 pi_d_a5_a3_proc_0 + 163 pi_d_a5_a4_proc_0
      + 163 pi_d_a5_a6_proc_0 + 163 pi_d_a5_a7_proc_0 + 163 pi_d_a5_a8_proc_0
      + 163 pi_d_a5_a9_proc_0 + pi_y1_a5 + pi_y2_a5_proc_0 >= 0
 c19: 1119 pi_p_a5_a4 + 1119 pi_d_a5_a0_proc_1 + 1119 pi_d_a5_a1_proc_1
      + 1119 pi_d_a5_a3_proc_1 + 1119 pi_d_a5_a4_proc_1 + 1119 pi_d_a5_a6_proc_1
      + 1119 pi_d_a5_a8_proc_1 + pi_y1_a5 + pi_y2_a5_proc_1 >= 0
 c20: pi_p_a6_a3 - pi_p_a7_a6 - pi_p_a4_a6 - pi_d_a0_a6_proc_1
      - pi_d_a0_a6_proc_0 + pi_d_a6_a0_proc_1 + pi_d_a6_a0_proc_0
      - pi_d_a1_a6_proc_1 - pi_d_a1_a6_proc_0 + pi_d_a6_a1_proc_1
      + pi_d_a6_a1_proc_0 - pi_d_a2_a6_proc_0 + pi_d_a6_a2_proc_0
      - pi_d_a3_a6_proc_1 - pi_d_a3_a6_proc_0 + pi_d_a6_a3_proc_1
      + pi_d_a6_a3_proc_0 - pi_d_a4_a6_proc_1 - pi_d_a4_a6_proc_0
      + pi_d_a6_a4_proc_1 + pi_d_a6_a4_proc_0 - pi_d_a5_a6_proc_1
      - pi_d_a5_a6_proc_0 + pi_d_a6_a5_proc_1 + pi_d_a6_a5_proc_0
      + pi_d_a6_a7_proc_0 - pi_d_a7_a6_proc_0 + pi_d_a6_a8_proc_1
      + pi_d_a6_a8_proc_0 - pi_d_a8_a6_proc_1 - pi_d_a8_a6_proc_0
      + pi_d_a6_a9_proc_0 - pi_d_a9_a6_proc_0 >= 0
 c21: 920 pi_p_a6_a3 + 920 pi_d_a6_a0_proc_0 + 920 pi_d_a6_a1_proc_0
      + 920 pi_d_a6_a2_proc_0 + 920 pi_d_a6_a3_proc_0 + 920 pi_d_a6_a4_proc_0
      + 920 pi_d_a6_a5_proc_0 + 920 pi_d_a6_a7_proc_0 + 920 pi_d_a6_a8_proc_0
      + 920 pi_d_a6_a9_proc_0 + pi_y1_a6 + pi_y2_a6_proc_0 >= 0
 c22: 947 pi_p_a6_a3 + 947 pi_d_a6_a0_proc_1 + 947 pi_d_a6_a1_proc_1
      + 947 pi_d_a6_a3_proc_1 + 947 pi_d_a6_a4_proc_1 + 947 pi_d_a6_a5_proc_1
      + 947 pi_d_a6_a8_proc_1 + pi_y1_a6 + pi_y2_a6_proc_1 >= 0
 c23: - pi_p_a2_a7 + pi_p_a7_a8 + pi_p_a7_a6 - pi_d_a0_a7_proc_0
      + pi_d_a7_a0_proc_0 - pi_d_a1_a7_proc_0 + pi_d_a7_a1_proc_0
      - pi_d_a2_a7_proc_0 + pi_d_a7_a2_proc_0 - pi_d_a3_a7_proc_0
      + pi_d_a7_a3_proc_0 - pi_d_a4_a7_proc_0 + pi_d_a7_a4_proc_0
      - pi_d_a5_a7_proc_0 + pi_d_a7_a5_proc_0 - pi_d_a6_a7_proc_0
      + pi_d_a7_a6_proc_0 + pi_d_a7_a8_proc_0 - pi_d_a8_a7_proc_0
      + pi_d_a7_a9_proc_0 - pi_d_a9_a7_proc_0 >= 0
 c24: 954 pi_p_a7_a8 + 954 pi_p_a7_a6 + 954 pi_d_a7_a0_proc_0
      + 954 pi_d_a7_a1_proc_0 + 954 pi_d_a7_a2_proc_0 + 954 pi_d_a7_a3_proc_0
      + 954 pi_d_a7_a4_proc_0 + 954 pi_d_a7_a5_proc_0 + 954 pi_d_a7_a6_proc_0
      + 954 pi_d_a7_a8_proc_0 + 954 pi_d_a7_a9_proc_0 + pi_y1_a7
      + pi_y2_a7_proc_0 >= 0
 c25: pi_p_a8_a3 - pi_p_a7_a8 - pi_p_a4_a8 + pi_p_a8_a9 - pi_d_a0_a8_proc_1
      - pi_d_a0_a8_proc_0 + pi_d_a8_a0_proc_1 + pi_d_a8_a0_proc_0
      - pi_d_a1_a8_proc_1 - pi_d_a1_a8_proc_0 + pi_d_a8_a1_proc_1
      + pi_d_a8_a1_proc_0 - pi_d_a2_a8_proc_0 + pi_d_a8_a2_proc_0
      - pi_d_a3_a8_proc_1 - pi_d_a3_a8_proc_0 + pi_d_a8_a3_proc_1
      + pi_d_a8_a3_proc_0 - pi_d_a4_a8_proc_1 - pi_d_a4_a8_proc_0
      + pi_d_a8_a4_proc_1 + pi_d_a8_a4_proc_0 - pi_d_a5_a8_proc_1
      - pi_d_a5_a8_proc_0 + pi_d_a8_a5_proc_1 + pi_d_a8_a5_proc_0
      - pi_d_a6_a8_proc_1 - pi_d_a6_a8_proc_0 + pi_d_a8_a6_proc_1
      + pi_d_a8_a6_proc_0 - pi_d_a7_a8_proc_0 + pi_d_a8_a7_proc_0
      + pi_d_a8_a9_proc_0 - pi_d_a9_a8_proc_0 >= 0
 c26: 1251 pi_p_a8_a3 + 1251 pi_p_a8_a9 + 1251 pi_d_a8_a0_proc_0
      + 1251 pi_d_a8_a1_proc_0 + 1251 pi_d_a8_a2_proc_0 + 1251 pi_d_a8_a3_proc_0
      + 1251 pi_d_a8_a4_proc_0 + 1251 pi_d_a8_a5_proc_0 + 1251 pi_d_a8_a6_proc_0
      + 1251 pi_d_a8_a7_proc_0 + 1251 pi_d_a8_a9_proc_0 + pi_y1_a8
      + pi_y2_a8_proc_0 >= 0
 c27: 1094 pi_p_a8_a3 + 1094 pi_p_a8_a9 + 1094 pi_d_a8_a0_proc_1
      + 1094 pi_d_a8_a1_proc_1 + 1094 pi_d_a8_a3_proc_1 + 1094 pi_d_a8_a4_proc_1
      + 1094 pi_d_a8_a5_proc_1 + 1094 pi_d_a8_a6_proc_1 + pi_y1_a8
      + pi_y2_a8_proc_1 >= 0
 c28: pi_p_a9_a2 - pi_p_a3_a9 + pi_p_a9_a4 - pi_p_a8_a9 - pi_d_a0_a9_proc_0
      + pi_d_a9_a0_proc_0 - pi_d_a1_a9_proc_0 + pi_d_a9_a1_proc_0
      - pi_d_a2_a9_proc_0 + pi_d_a9_a2_proc_0 - pi_d_a3_a9_proc_0
      + pi_d_a9_a3_proc_0 - pi_d_a4_a9_proc_0 + pi_d_a9_a4_proc_0
      - pi_d_a5_a9_proc_0 + pi_d_a9_a5_proc_0 - pi_d_a6_a9_proc_0
      + pi_d_a9_a6_proc_0 - pi_d_a7_a9_proc_0 + pi_d_a9_a7_proc_0
      - pi_d_a8_a9_proc_0 + pi_d_a9_a8_proc_0 >= 0
 c29: 1292 pi_p_a9_a2 + 1292 pi_p_a9_a4 + 1292 pi_d_a9_a0_proc_0
      + 1292 pi_d_a9_a1_proc_0 + 1292 pi_d_a9_a2_proc_0 + 1292 pi_d_a9_a3_proc_0
      + 1292 pi_d_a9_a4_proc_0 + 1292 pi_d_a9_a5_proc_0 + 1292 pi_d_a9_a6_proc_0
      + 1292 pi_d_a9_a7_proc_0 + 1292 pi_d_a9_a8_proc_0 + pi_y1_a9
      + pi_y2_a9_proc_0 >= 0

Bounds
       pi_y1_a0 Free
       pi_y1_a1 Free
       pi_y1_a2 Free
       pi_y1_a3 Free
       pi_y1_a4 Free
       pi_y1_a5 Free
       pi_y1_a6 Free
       pi_y1_a7 Free
       pi_y1_a8 Free
       pi_y1_a9 Free
End
